(set-logic QF_ALIA)

; Declare exactly 10 array variables
(declare-fun arr0 () (Array Int Int))
(declare-fun arr1 () (Array Int Int))
(declare-fun arr2 () (Array Int Int))
(declare-fun arr3 () (Array Int Int))
(declare-fun arr4 () (Array Int Int))
(declare-fun arr5 () (Array Int Int))
(declare-fun arr6 () (Array Int Int))
(declare-fun arr7 () (Array Int Int))
(declare-fun arr8 () (Array Int Int))
(declare-fun arr9 () (Array Int Int))

; Declare index and value variables
(declare-fun i () Int)
(declare-fun j () Int)
(declare-fun k () Int)
(declare-fun v1 () Int)
(declare-fun v2 () Int)

; Assertions using all 10 arrays with controlled nesting depth (2-3 levels)
(assert (= (select arr0 i) 10))
(assert (= (select arr1 j) 20))
(assert (= (select (store arr2 i v1) i) v1))
(assert (= (select arr3 k) 30))
(assert (= (select (store arr4 j v2) j) v2))
(assert (= (select arr5 i) (select arr0 i)))
(assert (= (select (store arr6 i 15) i) 15))
(assert (= (select arr7 j) (select arr1 j)))
(assert (= (select (store (store arr8 i 5) j 10) i) 5))
(assert (= (select arr9 k) (select arr3 k)))
(assert (= (select (store arr0 k 25) k) 25))
(assert (= (select arr1 i) (select arr5 i)))
(assert (= (select (store arr2 j 30) j) 30))
(assert (> (select arr4 i) 0))
(assert (< (select arr6 j) 100))
(assert (= (select (store arr7 k 40) k) 40))
(assert (= (select arr8 i) (select (store arr9 i 50) i)))

(check-sat)